240 296
240 86
240 100
240 1549
240 1420
240 1
240 1204
240 1105
240 419
240 1478
240 1332
240 1222
240 698
240 1625
240 694
240 1912
240 390
240 590
240 1674
240 643
240 615
240 783
240 1182
240 350
240 417
296 86
296 100
296 1549
296 1446
296 1420
296 1
296 952
296 1470
296 1275
296 304
296 775
296 670
296 419
296 1478
296 1332
296 1522
296 1635
296 880
296 1848
296 1383
296 1649
296 743
296 1092
296 1126
296 338
296 617
296 1476
296 559
296 1457
296 1535
296 1726
296 993
296 328
296 1946
296 233
296 811
296 514
86 100
86 1549
86 1446
86 906
86 1204
86 1519
86 1567
86 304
86 73
86 625
86 366
86 114
86 1403
86 412
86 1124
86 791
86 1212
86 388
86 470
86 1077
86 1834
86 1423
86 1511
86 13
86 956
86 1082
86 1799
86 1950
86 1318
86 766
86 1196
86 1750
86 316
86 74
86 112
100 1
100 906
100 952
100 1266
100 1959
100 775
100 19
100 625
100 385
100 503
100 846
100 700
100 1024
100 1150
100 480
100 571
100 673
100 657
100 563
100 1982
100 1719
100 1342
100 1146
100 1287
100 713
100 400
100 1808
100 145
100 1330
100 973
100 936
100 486
100 50
100 1582
100 864
100 1585
100 1790
100 1033
100 668
1549 1446
1549 1275
1549 670
1549 1954
1549 7
1549 1332
1549 1522
1549 412
1549 815
1549 388
1549 1929
1549 1040
1549 1171
1549 89
1549 1805
1549 1043
1549 1956
1549 55
1549 1036
1549 207
1549 1999
1549 239
1549 887
1549 183
1549 232
1549 1984
1549 783
1549 1729
1549 1367
1549 1441
1446 1420
1446 906
1446 1519
1446 73
1446 1954
1446 558
1446 1478
1446 46
1446 948
1446 709
1446 211
1446 955
1446 905
1446 1591
1446 1165
1446 1997
1446 540
1446 39
1446 1766
1446 1637
1446 650
1446 965
1446 1154
1446 1693
1446 87
1446 1382
1446 115
1446 1907
1420 1204
1420 1519
1420 1470
1420 1567
1420 1266
1420 1954
1420 1521
1420 385
1420 503
1420 948
1420 221
1420 1222
1420 846
1420 700
1420 1261
1420 167
1420 1675
1420 1064
1420 647
1420 1921
1420 1591
1420 270
1420 1086
1420 599
1420 640
1420 792
1420 674
1420 1082
1420 1025
1420 782
1420 1326
1420 1851
1420 1112
1420 659
1 1567
1 1959
1 345
1 419
1 1652
1 1024
1 955
1 751
1 1374
1 327
1 1878
1 974
1 814
1 1497
1 1410
1 893
1 1392
1 1413
1 772
1 1939
906 952
906 1470
906 558
906 1203
906 580
906 709
906 1704
906 579
906 666
906 1983
906 1509
906 346
906 1637
906 1058
906 1538
906 1157
906 856
906 1995
1204 385
1204 1115
1204 858
1204 1280
1204 1633
1204 267
1204 68
1204 979
1204 375
1519 366
1519 396
1519 1872
1519 1070
1519 192
1519 1677
1519 1043
1519 913
1519 548
1519 1561
1519 1782
1519 1190
1519 899
1519 801
1519 1596
1519 991
1519 1120
1519 1973
1519 1210
1519 1030
952 1275
952 775
952 625
952 1429
952 475
952 77
952 1850
952 1207
952 1061
952 384
952 1625
952 1389
952 695
952 977
952 834
952 276
952 715
952 1755
952 75
952 286
952 1418
1470 304
1470 611
1470 475
1470 794
1470 454
1470 1431
1470 1272
1470 285
1470 1036
1470 1411
1470 444
1470 404
1470 229
1470 1238
1470 1315
1470 1496
1567 653
1567 1150
1567 1675
1567 1312
1567 255
1567 538
1567 1594
1567 1661
1567 779
1567 107
1275 1266
1275 1959
1275 73
1275 670
1275 7
1275 535
1275 1890
1275 751
1275 1848
1275 237
1275 152
1275 1862
1275 1244
1275 268
1275 1012
1275 1581
1275 1182
1275 1209
1275 655
1266 19
1266 366
1266 611
1266 836
1266 1712
1266 960
1266 1461
1266 1487
1266 752
1266 1649
1266 449
1266 638
1266 1186
1266 1377
1266 201
1266 185
1266 524
1266 677
1959 345
1959 1105
1959 114
1959 836
1959 1704
1959 1312
1959 1198
1959 647
1959 698
1959 341
1959 932
1959 1123
1959 373
1959 800
1959 1273
1959 1641
1959 1113
304 1521
304 7
304 221
304 1394
304 8
304 1657
304 1212
304 1465
304 777
304 57
304 657
304 1217
304 1540
304 629
775 19
775 1261
775 1255
775 925
775 753
775 1077
775 1701
775 1533
775 1665
775 554
775 1424
775 1584
775 1940
775 263
775 883
775 1836
775 1661
775 782
775 1651
775 1542
775 414
775 52
775 490
775 1700
73 1429
73 1115
73 1142
73 1929
73 777
73 673
73 275
73 841
73 271
73 229
73 1908
73 92
73 526
73 1343
73 465
73 1664
19 1429
19 46
19 1203
19 846
19 1207
19 1921
19 1348
19 1086
19 88
19 612
19 816
19 1443
19 400
19 529
19 324
19 1882
19 1497
19 195
19 534
19 1419
19 15
19 1196
19 897
19 1215
19 1496
19 724
625 345
625 77
625 1403
625 653
625 1461
625 1142
625 1171
625 1666
625 875
625 387
625 431
625 1344
366 535
366 438
366 1849
366 1357
366 1056
366 563
366 1450
366 172
366 1078
366 529
366 294
366 171
366 1052
366 1600
366 332
366 1449
366 1724
366 418
670 611
670 89
670 1070
670 792
670 1365
670 1450
670 346
670 1123
670 710
670 204
670 1410
670 45
670 967
670 445
670 371
345 1105
345 1203
345 1635
345 1779
345 847
345 637
345 1252
345 533
345 1334
345 1297
345 414
345 340
345 375
1105 1521
1105 558
1105 355
1105 549
1105 1631
1105 1383
1105 1835
1105 1983
1105 1138
1105 600
1105 277
1105 1718
1105 713
1105 871
1105 1764
1105 398
1105 675
1105 1851
1105 1486
1105 859
1105 1155
1429 535
1429 1331
1429 815
1429 942
1429 1676
1429 904
1429 1068
1429 554
1429 920
1429 512
1429 471
1429 1671
1429 1898
1429 1396
1429 1582
1429 1771
1429 1939
1954 580
1954 948
1954 382
1954 664
1954 1530
1954 815
1954 1989
1954 925
1954 470
1954 978
1954 1482
1954 1912
1954 718
1954 1545
1954 157
1954 1679
1954 227
1954 150
1954 1662
1954 1408
1954 810
419 1115
419 355
419 8
419 1090
419 1536
419 1289
419 985
419 1348
419 942
419 254
419 131
419 827
419 1412
419 457
419 1963
419 1063
419 1278
419 951
419 690
419 249
419 1299
419 1259
419 684
1521 1222
1521 794
1521 1331
1521 1255
1521 1712
1521 1777
1521 192
1521 802
1521 1637
1521 1594
1521 394
1521 946
1521 1553
1521 1444
1521 22
1521 530
1521 1691
1521 165
385 1704
385 1631
385 878
385 1142
385 1388
385 1214
385 1169
385 1341
385 1356
385 996
385 335
385 1257
385 339
558 46
558 503
558 1522
558 412
558 1122
558 1779
558 1171
558 1740
558 640
558 1320
558 1180
558 267
558 1605
558 756
558 1919
558 209
558 246
558 213
558 1205
558 1560
558 161
558 1055
1478 8
1478 353
1478 1657
1478 1675
1478 1405
1478 1631
1478 384
1478 1740
1478 1886
1478 1377
1478 1514
1478 239
1478 1702
1478 1241
1478 1961
7 580
7 1090
7 880
7 480
7 711
7 612
7 904
7 854
7 1370
7 39
7 634
7 617
7 760
7 1336
7 1553
7 1856
46 114
46 1779
46 1328
46 1835
46 1010
46 1389
46 230
46 722
46 1868
46 1743
46 1681
46 54
46 1157
46 1543
46 488
46 950
46 516
46 1736
1203 475
1203 221
1203 709
1203 858
1203 1591
1203 27
1203 749
1203 365
1203 959
1203 1097
1203 1648
1203 1525
1203 874
1203 725
503 847
503 344
503 1666
503 1529
503 1794
503 1252
503 1749
503 1557
503 1141
503 66
503 83
1332 599
1332 1099
1332 1193
1332 1458
1332 1822
1332 1624
1332 1244
1332 93
1332 256
611 1124
611 1890
611 1909
611 689
611 241
611 618
611 1023
475 77
475 1124
475 955
475 652
475 1368
475 69
475 271
475 1899
475 1098
475 849
475 784
475 862
475 197
475 1188
475 1970
475 1988
475 1772
475 513
77 353
77 1850
77 878
77 1551
77 1240
77 13
77 39
77 284
77 1217
77 988
77 595
77 1836
77 661
77 547
77 598
77 1809
77 610
77 318
580 167
580 753
580 1853
580 1010
580 1982
580 1190
580 790
580 908
580 1764
580 1285
580 1662
580 851
580 940
114 1652
114 664
114 167
114 1530
114 1712
114 1461
114 1086
114 711
114 1551
114 1349
114 956
114 1822
114 1761
114 1701
114 1883
114 1498
114 1647
114 1602
114 1440
114 1689
114 745
114 766
114 1277
114 577
114 1408
114 315
114 65
114 642
114 1353
948 1024
948 1890
948 960
948 1777
948 470
948 1310
948 1348
948 36
948 674
948 1270
948 51
948 498
948 539
948 1345
221 922
221 1853
221 215
221 1715
221 1611
221 944
221 853
221 820
221 1250
221 1296
221 1847
1522 1652
1522 1271
1522 1003
1522 571
1522 57
1522 1628
1522 111
1522 774
1522 1842
1522 1027
1522 85
1522 502
1522 1075
1522 616
1522 1187
1522 1706
1222 922
1222 252
1222 816
1222 1956
1222 404
1222 1469
1222 1451
1222 291
1222 189
1222 1430
1222 1855
1222 727
1115 1403
1115 382
1115 211
1115 1255
1115 549
1115 237
1115 932
1115 1767
1115 1159
1115 501
1115 959
1115 1287
1115 1156
1115 1415
1115 1221
1115 380
1115 35
1403 794
1403 353
1403 1405
1403 1309
1403 752
1403 1003
1403 757
1403 70
1403 1100
1403 1686
1403 1573
1403 234
1403 1194
1403 590
1403 1084
1403 1553
1403 483
1403 704
1403 1042
535 1394
535 880
535 1849
535 624
535 1677
535 892
535 1078
535 1749
535 1372
535 1738
535 644
535 1343
535 784
535 1454
535 497
412 1635
412 382
412 1663
412 878
412 1728
412 341
412 260
412 1370
412 885
412 1190
412 331
412 248
412 357
412 473
412 523
412 651
412 310
846 211
846 653
846 1090
846 925
846 1019
846 578
846 1388
846 1092
846 624
846 1211
846 312
846 875
846 202
846 1702
846 785
846 951
846 137
846 1250
846 856
846 1784
846 428
1635 1150
1635 1014
1635 1989
1635 1271
1635 1929
1635 1092
1635 1010
1635 459
1635 633
1635 1011
1635 1788
1635 410
1635 1803
1635 514
794 1122
794 751
794 743
794 749
794 1477
794 17
794 1443
794 990
794 195
794 879
794 1979
794 1499
794 1344
794 555
794 943
709 700
709 1122
709 1657
709 220
709 270
709 1633
709 1180
709 495
709 1926
709 1862
709 1611
709 1489
709 1435
709 585
709 1378
709 1401
1652 1331
1652 454
1652 637
1652 1423
1652 711
1652 1980
1652 1653
1652 47
1652 1583
1652 189
1652 971
1652 1141
1652 706
1652 1813
1652 868
700 1663
700 985
700 1214
700 285
700 1395
700 403
700 429
700 822
700 658
700 97
382 1014
382 791
382 1835
382 277
382 459
382 1201
382 688
382 231
382 1506
382 1525
382 724
211 1261
211 1850
211 579
211 1212
211 560
211 1193
211 1169
211 686
211 1452
211 850
211 1566
211 281
211 1236
1122 858
1122 978
1122 537
1122 70
1122 1349
1122 327
1122 1131
1122 195
1122 1111
1122 849
1122 233
1122 105
1331 396
1331 549
1331 1405
1331 1312
1331 1465
1331 1663
1331 1040
1331 255
1331 1099
1331 1718
1331 1166
1331 1172
1331 312
1331 1902
1331 1940
1331 730
1331 1049
1331 1221
1331 1763
1331 49
1331 1807
1331 804
1331 882
1331 435
1331 1304
1331 1494
1124 836
1124 960
1124 1019
1124 1853
1124 1167
1124 637
1124 1894
1124 1834
1124 638
1124 1906
1124 854
1124 305
1124 688
1124 1622
1124 1901
1124 1593
1124 142
1124 1391
1124 1438
1124 236
1124 1264
1124 163
1124 151
1124 874
1024 220
1024 1482
1024 260
1024 1477
1024 1822
1024 633
1024 1373
1024 1350
1024 646
1024 320
1261 1758
1261 1458
1261 759
1261 1578
1261 1748
1261 1156
1261 1341
1261 1987
1261 1562
1261 613
1261 1825
1261 997
1261 190
1261 646
1261 641
1261 877
1261 212
1261 1225
653 396
653 1328
653 922
653 1957
653 228
653 560
653 1758
653 131
653 1366
653 1878
653 1369
653 1831
653 1084
653 1846
653 879
653 491
653 1385
653 1752
653 562
955 791
955 275
955 1589
955 1876
955 1882
955 1047
955 1480
955 1314
1779 1487
1779 1374
1779 1490
1779 1638
1779 1301
1779 1732
1779 1595
1779 953
1779 1475
396 355
396 664
396 1014
396 905
396 252
396 978
396 540
396 489
396 1622
396 1066
396 568
396 1874
396 1360
355 1516
355 753
355 388
355 1816
355 191
355 289
664 1465
664 657
664 1634
664 214
664 1001
664 1229
167 1744
167 1865
167 989
167 540
167 1529
167 338
167 421
1890 1394
1890 1848
1890 560
1890 1894
1890 985
1890 1320
1890 1472
1890 1862
1890 988
1890 983
1890 42
1890 1659
1890 1936
1394 1064
1394 1517
1394 1624
1394 1803
1394 1067
1394 63
1394 886
1394 1359
1394 677
1394 1845
1150 438
1150 36
1150 88
1150 1376
1150 1147
1150 1909
1150 1238
1150 1965
1150 1434
1150 680
1150 1864
1014 228
1014 1368
1014 1293
1014 1666
1014 848
1014 1611
8 1516
8 1487
8 1388
8 1805
8 1169
8 271
8 632
8 1026
8 1681
8 660
8 778
8 1245
8 464
8 857
8 1967
8 1939
8 1239
751 220
751 1126
751 1043
751 440
751 125
751 348
751 1933
791 1328
791 36
791 929
791 1472
791 230
791 968
791 1414
791 134
791 1844
791 1955
791 833
791 1034
353 1530
353 1061
353 743
353 489
353 1876
353 149
353 710
353 1806
353 1017
353 298
353 1528
353 374
353 728
353 491
353 1942
353 855
1657 70
1657 1748
1657 431
1657 1116
1657 1260
1255 1064
1255 1949
1255 1511
1255 1237
1255 1914
1255 554
1255 1489
1255 1430
1255 1022
1255 821
1255 1248
1255 208
1675 638
1675 472
1675 1159
1675 263
1675 1919
1675 1437
1675 178
1675 1975
836 1957
836 1744
836 601
836 1589
836 763
836 968
836 935
836 238
836 766
836 1464
836 542
836 1300
836 1534
836 1587
836 1200
1530 579
1530 1989
1530 454
1530 1777
1530 1921
1530 1138
1530 1997
1530 305
1530 512
1530 2
1530 1234
1530 1643
1530 487
1530 744
1530 1824
1530 130
1530 987
1712 1517
1712 275
1712 224
1712 264
1712 1094
1712 1885
1090 1198
1090 480
1090 666
1090 929
1090 294
1090 196
1090 1052
1090 732
1090 965
1090 405
1090 583
1090 1045
960 626
960 1223
960 1070
880 1309
880 1383
880 619
880 152
880 1417
880 1941
880 457
880 1725
880 246
880 84
880 1340
880 468
880 265
880 1108
880 364
880 876
880 160
1704 1374
1704 1320
1704 538
1704 411
1704 693
1704 522
1704 349
1704 707
815 1207
815 1957
815 1077
815 582
815 1365
815 1417
815 440
815 566
815 1667
815 1869
815 1753
815 1286
1850 1198
1850 26
1850 1283
1850 51
1850 1950
1850 736
1850 950
1850 876
1850 1355
1850 1796
579 1309
579 1872
579 1310
579 1237
579 1638
579 942
579 111
579 1592
579 392
579 1767
579 622
579 1800
579 1162
579 1067
579 78
579 1114
579 1844
579 867
579 1554
1207 666
1207 861
1207 1293
1207 1732
1207 1377
1207 1868
1207 1140
1461 905
1461 27
1461 237
1461 694
1461 1677
1461 1389
1461 1058
1461 1569
1461 1337
1461 314
1461 1047
1461 1750
1461 583
1461 787
1461 1684
1461 1460
1461 1225
1212 1516
1212 1368
1212 601
1212 284
1212 1710
1212 1658
1212 1054
1212 1268
1212 452
549 832
549 88
549 1183
549 883
549 1479
549 689
549 716
549 1641
1848 941
1848 1766
1848 591
1848 129
1848 1738
1989 485
1989 591
1989 531
1989 918
1989 1379
1989 687
1405 599
1405 1761
1405 1485
1405 444
1405 1653
1405 675
1405 1402
1405 1000
1631 647
1631 1310
1631 1767
1631 1080
1631 1584
1631 1352
1631 1630
1631 1749
1631 760
1631 1269
1631 1017
1631 1438
1631 1336
1631 662
1631 520
1631 1813
1631 737
1312 848
1312 215
1312 719
1309 40
1309 1100
1309 111
1309 1302
1309 447
1309 1817
1309 1327
858 1906
858 1914
858 1545
858 331
858 1686
858 1424
858 888
858 1476
858 1762
858 741
858 1773
858 1508
858 947
858 876
858 1632
858 1439
1064 1193
1064 1068
1064 1578
1064 69
1064 1166
1064 410
1064 1242
1064 1658
1064 995
1064 1274
1064 1911
1064 1065
1064 850
1328 578
1328 777
1328 582
1328 1349
1328 1529
1328 1766
1328 1159
1328 12
1328 312
1328 346
1328 410
1328 492
1328 24
1328 1323
1328 184
1328 928
1328 1720
1328 1608
454 89
454 1886
454 1802
454 172
454 1905
454 1659
454 996
454 1463
454 1111
454 1884
454 1065
454 1927
1198 626
1198 1243
1198 1950
1198 661
1198 1502
922 752
922 1949
922 571
922 270
922 920
922 1762
922 773
922 1406
922 274
922 1691
1516 847
1516 1167
1516 1240
1516 630
1516 1485
1516 1584
1516 1535
1516 183
1516 1196
1516 645
1516 788
1516 1791
1516 1774
1516 1889
647 438
647 1019
647 1983
647 1536
647 757
647 749
647 1223
647 1918
647 1342
647 841
647 96
647 1604
647 1985
647 1220
647 1439
1383 582
1383 1782
1383 974
1383 613
1383 1903
925 228
925 188
925 239
925 1600
925 1787
925 1205
925 627
480 1135
480 1517
480 1980
480 622
480 1102
480 1318
480 1413
480 1554
1465 1849
1465 1450
1465 336
1465 958
1957 698
1957 1271
1957 1894
1957 1949
1957 1223
1957 694
1957 1490
1957 467
1957 152
1957 456
1957 990
1957 175
1957 738
1957 1910
1957 442
698 1828
698 1056
698 267
698 931
698 1757
698 434
698 795
698 1619
1663 1040
1663 1176
1663 1624
1663 1806
1663 519
1663 851
1663 1434
1663 1209
1663 259
438 1625
438 1676
438 119
438 586
438 393
878 1135
878 341
878 1170
878 773
878 335
878 311
878 166
878 115
878 994
878 1670
1487 1294
1487 390
1487 158
1487 421
1487 526
1487 1752
1487 1407
1835 485
1835 1788
1835 512
1835 980
1835 352
1835 161
1835 500
1835 1970
1142 1945
1142 841
1142 288
1142 207
1142 257
1142 829
1142 681
1142 1991
1142 863
1271 1214
1271 1758
1271 688
1271 17
1271 1358
1271 377
1271 1428
1271 1697
1271 1359
1271 156
847 718
847 899
847 1842
847 1194
847 1443
847 676
847 299
847 280
847 1002
847 339
753 1003
753 1834
753 1865
753 1536
753 1057
753 1551
753 26
753 1484
753 941
753 467
753 1883
753 1411
753 1106
753 1027
753 1674
753 1792
753 866
753 1755
753 1833
753 1453
753 102
753 1251
753 636
753 1620
753 825
228 1744
228 578
228 1289
228 1246
228 1740
228 1240
228 832
228 834
228 1953
228 51
228 643
228 957
228 958
228 133
388 1930
388 1480
388 1942
388 1797
1019 384
1019 1816
1019 1485
1019 420
1019 1221
1019 109
1019 853
1019 561
666 652
666 449
666 545
666 789
666 149
666 24
666 193
666 1258
1853 1431
1853 1728
1853 932
1853 285
1853 892
1853 1422
1853 975
1853 150
1853 1575
1853 1680
1853 342
1853 1569
1853 101
1853 1884
1853 79
752 1167
752 673
752 1490
752 12
752 230
752 210
752 745
752 1747
752 896
752 1858
752 1151
752 1916
752 900
752 910
752 484
752 4
1167 652
1167 1458
1167 1369
1167 1739
1777 40
1777 1592
1777 1217
1777 1575
1777 1075
1777 99
1777 1208
1777 1475
1777 1434
1777 635
1929 252
1929 1802
1929 691
1929 523
1929 65
905 1176
905 222
905 409
905 84
905 1832
905 717
905 1022
905 450
905 672
1744 975
1744 420
1744 477
1744 118
1744 166
1744 1213
1744 1325
637 1649
637 961
637 600
637 1509
637 34
637 1211
637 1363
637 697
637 1839
637 1873
637 678
637 279
578 626
578 861
578 1352
578 1069
578 1292
578 216
578 1587
578 636
470 1061
470 1423
470 1126
470 904
470 913
470 802
470 1940
470 1722
470 297
470 1288
470 1598
470 1094
470 1291
470 1572
470 429
470 322
1061 27
1061 1289
1061 277
1061 472
1061 699
1061 1265
1061 1146
1061 113
1061 923
1061 2
1061 222
1061 104
1061 1066
1061 1347
1061 1367
1061 1877
1061 901
777 255
777 1365
777 923
777 769
777 201
777 1866
777 1206
777 425
777 154
777 1145
1388 449
1388 831
1388 1915
652 1879
652 463
1983 1246
1983 643
1983 1291
1983 1520
1983 1081
384 69
384 953
384 551
384 559
384 391
384 1733
384 520
1921 1912
1921 1794
1921 807
1921 1414
1921 805
1003 1872
1003 929
1003 607
1003 966
1077 40
1077 1509
1077 1559
1077 1634
1077 1242
1077 896
1077 1669
1077 1110
1077 1513
1872 254
1872 1488
1872 96
1872 551
1872 1558
1872 778
1872 1114
1872 250
1872 663
1591 1246
1591 757
1591 1272
1591 1859
1591 1138
1591 1540
1591 308
626 633
626 763
626 282
626 875
626 1410
626 1534
626 1759
560 1415
560 1097
560 1373
560 1256
560 1315
560 1254
27 975
27 1173
27 748
27 1437
27 436
1894 1865
1894 1431
1894 26
1894 1953
1894 268
1894 1130
1894 14
1894 1508
1894 1745
1894 1188
1894 1232
1310 301
1310 866
1310 1140
1310 605
1949 1511
1949 13
1949 344
1949 1080
1949 1082
1949 1399
1949 1725
1949 1693
40 544
40 769
40 944
40 200
40 1502
40 1466
40 970
40 286
40 360
40 465
40 1375
40 857
40 169
571 1237
571 1761
571 1895
571 686
571 1026
571 1235
571 33
571 187
571 945
571 316
571 1257
1834 1127
1834 463
1834 546
1834 1860
1834 136
1834 179
1834 1667
1834 446
1834 1753
1834 1345
1834 576
1649 56
1649 1943
1865 473
1865 1692
1040 537
1040 1914
1040 219
1040 1710
1040 463
1040 620
1040 1599
1040 78
1040 1581
1040 1031
1040 1046
220 1906
220 1376
220 1679
220 1586
220 1876
220 317
220 406
220 426
220 1317
220 1838
220 782
220 297
220 1177
220 362
220 719
220 593
220 496
220 1118
220 1139
1171 885
1171 809
1171 971
1171 772
1171 556
1171 1295
1536 1484
1536 1531
1536 204
1536 786
1536 1708
1536 1688
1625 1176
1625 699
1625 1106
1625 42
1625 1515
1625 372
1625 508
1625 500
1625 703
270 1548
270 1981
270 30
270 35
270 386
1289 1816
1289 609
1289 899
1289 453
1289 1715
1289 18
1289 1905
1289 456
1289 498
1289 1419
1289 1776
1289 1821
1289 1576
1289 493
985 961
985 1997
985 1166
985 1311
985 1421
985 916
985 1298
985 1935
985 41
1348 961
1348 1859
1348 1170
1348 1654
1348 1130
1348 1362
237 612
237 619
237 543
237 863
449 861
449 640
449 1087
449 28
449 61
449 507
449 1699
961 309
961 898
961 756
961 827
961 324
1368 1533
1368 759
1368 1371
1368 61
1368 1338
1368 1442
1368 1493
1368 608
1368 1195
1368 1432
1368 1897
1368 173
1368 223
1086 537
1086 1801
1086 395
1086 1004
1086 533
1086 258
1086 895
1086 1840
1086 1455
673 1057
673 1370
673 1647
1431 1272
1431 1665
1431 317
1431 602
1431 1381
1431 1965
1431 1101
1431 704
1431 740
252 157
252 546
252 1552
252 1340
252 1607
252 117
252 1382
252 1085
252 1398
252 1305
638 1135
638 1099
638 1638
638 1283
638 1647
638 1107
638 1581
638 997
638 1359
638 1798
1246 1100
1246 1068
1246 1786
1246 1895
1246 511
1246 1832
1246 190
1246 822
1246 930
89 1945
89 1747
89 1963
743 718
743 1201
743 119
743 328
743 125
743 1154
743 1750
743 9
743 1881
743 44
1740 1497
1740 628
1740 427
1740 1627
1740 737
1740 874
1092 1357
1092 1170
1092 1676
1092 545
1092 913
1092 721
1092 1072
1092 1457
1092 765
1092 101
1092 1944
1092 778
1092 1873
1423 1283
1423 1341
1423 893
1423 604
1423 725
757 816
757 157
757 1342
757 1555
757 383
757 135
757 186
757 1907
1272 1727
1272 1710
1272 347
1272 1027
1272 140
1272 991
1010 337
1010 1503
1010 976
1214 531
1214 1471
1214 432
1511 1628
1511 941
1511 0
1511 1974
599 1828
599 1165
599 832
599 1018
599 885
599 1829
599 754
599 145
599 1278
599 1616
582 1859
582 1484
582 607
582 1926
582 1715
582 769
582 1875
582 25
978 1165
978 986
978 1998
978 1340
978 1627
978 1580
749 1057
749 600
749 309
749 365
749 1902
749 590
749 585
749 142
749 1277
749 860
749 603
749 605
749 576
749 1284
749 596
1237 207
1237 21
861 1828
861 1886
861 1280
861 1293
861 1918
861 284
861 1895
861 1595
861 1654
861 113
861 94
861 109
861 1241
861 174
861 833
861 1296
861 1571
1828 219
1828 1592
1828 76
1828 1793
1828 895
255 1294
255 1049
255 814
255 1053
255 32
255 803
255 363
1849 1633
1849 1586
1849 797
1849 762
1849 1514
1849 1307
1849 1705
1849 1110
36 1357
36 1805
36 1802
36 1498
36 1861
36 882
36 828
1859 1011
1859 1369
1859 1673
1135 624
1135 1174
1135 1265
1135 609
1135 119
1135 1279
1135 1137
1135 1735
1135 287
1135 203
1135 380
1135 1313
1138 1610
1138 1133
1138 748
1138 1775
1138 1897
1138 716
1138 1841
1138 343
1138 1456
1374 989
1374 834
1374 324
1374 1147
1374 1594
1374 1651
1374 49
1374 1885
1374 1958
1357 1980
1357 1786
1357 85
1357 1870
1357 290
1357 335
1357 1729
1357 1683
1357 126
1357 1500
1357 1513
1357 1239
711 344
711 1718
711 188
711 722
711 377
711 462
711 115
1057 1471
1057 1302
1057 900
1057 401
1057 758
1551 1172
1551 1323
1551 1093
1551 1503
1551 299
1551 1143
1551 1125
1551 868
1551 1541
537 989
537 57
537 260
537 1751
537 1183
537 634
537 1269
537 1722
537 965
537 1588
537 1493
537 588
537 864
537 1620
1517 1482
1517 617
1517 251
1517 1060
1517 200
1517 779
1517 1900
1517 1195
1517 205
1223 1628
1223 1477
1223 544
1223 1811
1223 1428
1223 439
1223 1286
1223 1742
1223 651
1099 1280
1099 317
1099 888
1099 986
1099 990
1099 1971
1099 788
1099 1920
1099 1819
1240 1728
1240 545
1240 1183
1240 181
1240 409
1240 1504
1240 213
989 528
989 1774
989 1164
989 729
989 1335
929 830
929 1339
929 528
929 30
1165 1252
1165 1471
1165 1133
1165 1741
1165 1079
1165 1039
640 1056
640 854
640 395
640 453
640 311
640 507
640 1380
640 669
1056 800
1056 319
1056 573
1056 1993
57 1589
57 898
57 1211
57 1926
1070 459
1070 601
1070 1801
1070 1794
1070 406
1070 1556
1070 1818
1070 681
1906 1301
1906 485
1906 227
1906 399
1906 358
1906 1552
1906 528
1906 1717
694 1311
694 1902
694 1540
694 1317
694 441
694 1116
694 1645
1886 630
1886 888
1886 1502
1886 511
1886 907
1886 354
1728 1823
1728 1556
1728 1102
1728 706
1176 1174
1176 303
1176 1825
1176 853
1176 933
1482 456
1482 349
600 630
600 392
600 82
600 1108
600 1579
832 548
832 1788
832 1800
832 1412
832 1162
832 1899
832 550
832 526
832 1734
832 1952
832 380
832 1639
832 1523
341 892
341 774
341 1799
341 1191
341 799
341 1990
341 434
341 886
1490 902
1490 1287
1490 1087
1490 1826
1490 1463
1490 1946
1490 733
1490 360
1490 1231
1490 1032
1490 1248
1193 1025
1193 881
1193 891
1193 290
1193 401
1280 760
1280 1054
1280 1095
1280 1433
1280 1181
1280 1219
1280 636
1638 699
1638 390
1638 204
1638 991
1638 1460
277 759
277 1593
277 1098
942 1301
942 908
942 697
942 1066
942 1851
942 1577
1633 792
1633 1498
1633 1395
1633 756
1633 1659
1633 1966
1633 946
1633 1601
1633 1852
1633 1695
1633 764
1633 1416
1170 55
1170 1998
1170 136
1170 1979
1170 1141
1170 1454
1170 556
1170 1770
70 192
70 34
70 1878
70 944
70 533
70 136
70 1160
70 262
70 38
88 1561
88 702
624 1883
624 802
624 21
624 1723
624 1636
624 1820
624 491
624 1582
624 1213
624 1547
624 160
1349 1243
1349 1324
1349 1281
657 1719
657 730
657 492
657 1562
657 980
657 887
657 325
657 121
657 1378
657 468
657 1008
657 964
657 1910
657 20
657 433
657 1613
657 1843
1301 1719
1301 713
1301 923
1301 983
1301 58
1301 820
1301 430
1301 117
792 234
792 566
792 632
792 1307
1100 563
1100 763
1100 1527
1100 1860
1100 527
1100 1157
1100 1847
192 1527
192 1468
192 1433
192 1313
1912 1732
1912 219
1912 1417
1912 1412
1912 209
1912 292
1912 1076
1912 93
13 956
13 898
13 337
13 1721
13 1762
13 1002
13 1085
1805 1982
1805 1095
1805 1038
1805 1007
1293 33
1293 747
1293 1324
1293 170
1293 161
1293 120
459 745
459 1409
459 1432
459 315
459 658
459 1192
459 1200
459 835
932 392
932 1080
932 1782
932 920
932 176
932 620
932 411
932 1798
932 1854
1758 607
1758 1435
1758 292
1758 1847
1676 467
1676 1573
1676 1258
1676 1459
1676 22
1676 1088
1677 1801
1677 544
1677 282
1677 632
1677 202
1677 1069
1320 495
1320 331
1320 196
1320 268
1320 1707
1320 1245
1320 206
1320 1200
1320 1544
1320 746
1320 1496
1126 1653
1126 1577
1126 970
1126 1116
1126 835
1628 305
1628 68
1628 662
1628 257
1628 1889
1628 481
612 774
612 288
612 1270
612 1337
612 189
612 242
612 169
612 668
1997 1533
1997 902
1997 1018
1997 327
1997 695
1997 954
1997 1528
1997 121
1997 383
1997 370
1997 257
1997 60
1997 1344
1997 543
1997 1041
904 591
904 1117
904 1870
904 1518
1458 1531
1458 1945
1458 395
1458 336
1458 1699
540 1701
540 330
540 453
540 613
540 166
540 1315
540 1844
540 970
540 1969
540 1257
540 930
540 141
540 22
540 934
275 1127
275 1049
275 1811
275 742
275 806
275 1007
111 848
111 1364
111 171
111 1726
111 283
111 1838
111 1887
111 1299
111 1449
111 1923
854 1578
854 538
854 131
854 790
854 471
854 1147
854 754
854 1792
854 158
854 1867
854 724
285 1668
285 23
285 1680
285 1506
285 851
956 309
956 1568
956 1947
956 1524
956 1353
1043 1557
1043 564
1365 619
1365 1194
1365 251
1365 1406
1365 1132
1365 1045
344 265
344 164
344 1500
344 553
1389 1561
1389 1472
1389 1186
1389 602
1389 427
1389 1547
1389 1096
26 1180
26 1294
26 378
26 1052
26 1730
601 1127
601 1531
601 1808
601 404
601 1269
601 1072
601 1107
601 54
601 1362
601 1062
260 1786
260 495
260 474
260 1602
260 1072
260 866
260 1871
260 937
260 479
1802 263
1802 1674
1802 176
1802 1803
1802 615
1802 383
1802 1318
1802 973
1802 424
1802 1974
1370 474
1370 1146
1370 1095
1370 422
1666 1174
1666 34
1666 1051
1666 1050
1666 1479
1666 1781
1666 1793
1666 1032
1666 725
309 1634
309 1602
309 1606
309 1177
545 1665
545 968
545 378
545 1089
545 628
545 476
545 1776
545 1380
545 1974
545 1813
545 1387
545 1603
545 631
1174 1846
1174 519
1174 476
1174 1861
1174 1650
1174 162
1174 1346
1174 1037
1801 359
1801 935
1801 144
1801 568
1801 889
630 337
630 1839
1718 1051
1718 1629
1718 476
1718 15
1718 361
1718 1505
1589 301
1589 1442
1589 1285
1589 914
1589 1863
1589 302
1732 1001
305 1422
305 24
305 403
305 140
1068 548
1068 1879
1068 12
1068 1311
1068 959
1068 531
1068 474
1068 1356
1068 536
1477 674
1477 1376
1477 28
1477 1338
1477 103
1477 469
1477 1393
1477 1550
1484 1918
1484 931
1484 980
1484 616
1484 1378
1484 570
1484 1406
1484 798
1484 820
1484 460
674 622
674 338
674 1800
674 770
674 793
674 1253
674 329
1180 67
1180 235
1180 1613
619 1029
1822 1820
1822 1617
1822 1809
1822 1969
1822 949
1822 506
1822 371
1531 1016
1531 1821
913 551
913 1084
913 122
913 852
913 1404
913 9
913 460
1914 365
1914 332
219 1605
219 1151
219 134
219 1325
219 233
1761 174
1761 1103
1761 1119
1761 1314
1761 1398
1761 1962
1529 394
1529 43
1529 1016
1529 138
941 902
941 17
941 790
941 1440
941 1279
941 1338
941 1671
941 1840
941 1343
941 649
941 1892
1918 1137
1918 328
1918 907
1918 1118
563 330
563 1131
563 421
563 11
467 472
467 1610
467 754
467 1012
467 511
467 1292
467 1783
467 796
39 1731
39 938
39 974
39 214
39 411
39 393
39 1660
1294 148
1294 1364
1294 47
1294 708
1294 1128
1294 1213
1701 1366
1701 1629
1701 1136
1509 196
1509 1363
1509 432
1509 824
1509 1455
1509 1083
1980 1643
1980 1300
1980 1977
1980 1796
718 801
718 1253
718 1392
1533 1555
1533 175
1533 1076
1533 701
1533 981
1533 669
759 172
759 789
759 1721
759 71
759 1386
759 1857
1578 177
1578 690
848 1823
848 1606
848 314
848 1614
848 1964
902 1555
902 1622
902 1831
902 1667
548 1424
548 797
548 431
472 1172
472 1725
472 685
472 273
472 1466
472 900
472 706
472 924
472 354
1450 1308
1665 1018
1665 1908
633 266
633 1330
633 179
633 1753
892 1123
892 1562
892 773
892 812
892 1071
69 330
69 1751
69 1489
69 1399
69 1363
69 708
69 348
69 1136
1624 801
1624 244
1624 748
1624 178
1624 678
34 953
34 1556
34 1089
34 302
34 326
1592 254
392 1879
392 1400
392 1797
392 138
1561 938
1561 1488
1561 967
1561 244
1561 1538
1561 112
538 1574
538 1300
330 248
330 498
330 1399
330 1151
330 1525
330 1671
330 218
330 1565
330 48
330 1494
1766 448
1766 534
1766 1760
1766 1662
1766 1273
1766 603
1766 1168
1018 1751
1018 1559
1018 234
1018 1593
1018 1244
1018 1716
365 45
365 620
365 1197
365 604
284 1352
284 181
284 937
284 1843
284 1416
1767 1573
1767 1574
1767 183
1767 1031
1767 1880
1751 501
1751 16
1751 1444
1751 1505
1751 451
1166 1422
1166 1680
1166 1290
1166 405
1166 1007
622 1731
622 1011
622 1956
622 1586
622 938
622 992
622 536
622 596
885 928
885 1618
885 1948
1080 1473
1080 16
1080 721
1080 1053
1080 370
1080 542
1080 829
1080 1096
699 448
699 675
699 1612
699 1855
699 1387
699 1526
254 18
254 450
254 1219
1782 1402
1782 1991
1782 452
554 827
554 1059
554 628
554 812
554 1491
554 1685
554 1104
1982 301
1982 42
1982 487
1982 1763
1982 1381
1982 1164
172 439
172 31
172 1897
172 1035
172 146
338 1731
338 697
338 1986
338 1285
338 1444
1472 1051
1472 406
1472 1488
1472 1500
1472 318
816 1265
816 1366
816 1364
816 297
816 972
816 915
816 527
816 840
816 143
1786 565
131 1133
131 998
1283 1333
1283 1009
1283 1091
1731 1107
1731 519
1731 94
1731 1996
1731 957
898 1545
898 1727
898 1606
898 1793
898 1841
152 1106
152 235
152 939
152 1566
152 123
1376 1036
1376 1156
1376 966
1376 1610
1376 1999
1376 487
1376 291
485 1595
485 276
485 946
485 236
485 705
485 1037
1011 489
1011 634
1159 1201
1159 1686
1159 1559
1159 721
1159 1901
1159 1438
1159 780
1159 1616
1159 159
1159 516
1159 1202
1883 501
1883 55
1883 1411
1883 1373
1883 1860
1883 1820
1883 334
1883 957
1883 1483
1545 445
1545 1903
1190 1395
1190 45
1190 1757
1190 873
1190 1607
1190 66
1190 208
1201 215
1201 1473
1201 1440
1201 1504
1201 1400
1201 541
495 181
495 826
495 1451
607 1574
607 884
607 1733
607 379
607 1609
607 1709
390 1826
390 1163
390 1262
489 1679
489 1689
489 1059
489 1588
489 1336
489 547
489 949
1945 1235
1945 685
1945 585
1945 1590
1945 1073
1945 1071
1945 1281
1945 921
1945 1948
1211 437
1211 1829
1211 1930
1211 1503
327 871
327 881
327 783
327 860
327 130
327 127
327 37
327 1563
327 310
1183 177
1183 1952
331 996
331 926
331 1612
331 659
331 153
1926 314
1926 837
1686 1905
1686 1829
1686 735
12 1605
12 283
12 224
12 408
12 425
1424 321
1424 518
1424 1358
1424 416
1424 1656
1862 1058
1862 765
1862 1722
1862 82
1862 490
1862 1104
1719 1727
1719 1787
1719 1590
1719 402
1311 1842
1311 509
1311 842
1311 825
1794 1748
1794 1004
1794 1868
1794 823
1794 1778
1794 1759
1265 977
1265 1093
1265 244
1895 609
1895 695
1895 797
1895 789
1895 1966
1895 1288
1895 164
1895 1623
1366 227
1366 118
1366 1390
337 1008
337 446
337 289
337 1448
1559 1923
1172 359
1172 1308
1172 174
1172 562
1172 259
1172 1932
312 977
312 437
312 291
312 1474
312 357
312 1579
1573 210
1573 780
1573 1833
1573 375
215 446
215 849
215 1513
215 667
157 1025
157 1435
157 1173
157 325
157 1524
1788 1808
1788 728
1788 1379
1788 872
1788 1494
688 266
688 1333
688 1053
688 162
395 1941
395 983
395 995
395 693
1342 1557
1342 311
1342 1125
1342 731
1956 359
1956 1469
1956 102
501 730
501 870
501 1984
501 747
501 750
501 203
501 159
501 720
501 59
501 1933
609 645
1727 1811
1727 746
695 1187
695 54
899 1987
899 1234
899 125
899 293
899 1688
899 71
899 1889
774 1654
774 92
774 1114
774 587
774 1425
1485 1597
1485 1130
1485 852
1485 1938
1485 5
1485 1992
1485 1185
1679 23
1679 455
1679 1867
1679 1263
591 588
591 1152
591 1785
591 573
1595 113
1595 323
1595 1330
1595 1474
1595 692
1595 194
17 231
17 104
17 596
1586 378
1586 1919
1586 645
1654 1630
1654 148
1654 972
1654 696
1654 1730
797 1191
797 1430
797 577
797 933
797 199
959 1356
959 358
959 15
959 1339
959 1042
959 1587
267 770
234 1415
234 469
234 800
531 966
531 927
474 321
474 16
474 400
474 28
474 67
474 1911
474 1739
474 1276
1584 686
1584 1689
1584 1060
1584 891
1584 1904
1584 608
1584 1481
346 399
346 164
1902 1371
1902 1723
1902 1947
1902 1177
1842 1234
1842 1866
1842 424
1842 74
1842 627
55 879
55 159
55 497
55 1083
55 796
55 1439
1710 676
1710 992
1710 1514
1710 229
1710 1162
1710 103
1710 1197
1710 573
1710 508
1710 1523
1498 1433
1146 1630
1146 883
1146 1747
1146 209
1146 1643
1146 1189
1146 569
1194 1243
1194 1371
1194 1059
1194 1451
1194 387
1194 64
1194 206
1194 1632
1194 969
1051 216
802 1735
802 1971
802 49
802 781
802 138
1243 592
1243 838
1243 1260
1940 321
1940 1548
1940 1898
1876 347
1876 118
1876 997
1876 1734
1876 466
1876 310
1876 1896
1876 1656
1082 1806
1082 144
1082 10
1082 290
1082 1414
1082 1812
1443 1901
1443 918
1443 94
1443 1326
1443 494
1443 646
1443 1716
1443 1281
1443 665
263 214
263 595
263 1267
938 18
938 1846
938 1302
938 1858
938 824
938 915
938 515
938 1325
938 81
938 555
938 97
938 1153
1637 222
1637 954
1637 506
801 1131
801 469
801 1833
801 761
801 443
801 1925
1395 598
1395 714
789 830
789 158
789 357
789 692
789 739
453 149
453 814
453 1966
453 1996
453 729
453 1580
1878 440
1878 1673
1878 1858
1878 1930
1878 1958
1878 1178
1036 586
841 148
841 264
841 243
1634 1648
1634 1703
1634 818
1634 1576
1634 508
1634 3
1634 1460
1634 1013
1634 4
1287 351
790 1714
790 408
790 701
1715 288
1715 1515
1715 107
1352 420
1352 1075
1352 831
1352 1436
317 128
317 1391
181 145
181 518
181 397
1058 710
1058 374
1058 1683
1058 1160
1058 553
1252 457
1252 1322
1422 373
1422 1756
1422 1334
1422 1288
1422 349
1422 1943
1422 1263
1169 1173
1169 887
1169 323
1169 1642
119 347
119 1539
119 747
119 1321
977 427
977 1539
977 616
977 464
359 908
359 1721
359 246
359 1963
359 998
359 1639
359 1361
1748 477
1748 1050
1748 518
1748 1404
1748 714
1748 1619
1156 10
1156 142
1156 629
1156 1976
1156 1029
1156 561
975 1668
975 779
975 154
975 1603
1417 1154
1417 824
1417 550
1417 402
713 1473
713 1512
713 1267
713 1347
713 1877
713 123
1411 1087
1411 1421
1411 1233
1411 964
1411 38
888 1636
888 180
888 1335
1647 251
1647 1089
1647 1898
1647 1149
347 426
347 1102
347 486
347 1700
1473 644
1473 372
1602 986
1602 1831
1602 722
1602 830
1602 1636
1602 807
1602 1432
1602 20
1602 1361
908 156
1605 843
1605 1322
920 1823
920 992
920 232
920 1743
920 770
920 72
920 151
920 877
974 85
1106 444
1106 266
1106 671
1106 530
149 122
149 225
149 1972
149 1709
1025 1078
1025 502
1025 1900
1025 1713
1025 462
1025 855
406 705
590 951
590 1644
590 1641
1356 299
1356 1720
1555 76
1555 75
1555 1682
1555 107
1555 482
686 477
686 589
686 127
686 1321
1574 96
1574 1402
1574 1976
763 1054
1611 342
1611 1688
1611 804
1611 859
1611 500
1611 1248
230 1916
230 1741
1489 602
1489 1097
1489 509
1489 264
1489 98
1489 682
1800 437
1800 1268
1630 303
1630 1746
1371 1065
1371 1327
1027 871
1027 1702
1027 182
1027 587
1027 367
1027 1579
730 471
730 1583
730 1538
730 1009
730 703
730 869
301 676
301 175
301 1238
301 92
301 726
301 1038
301 734
410 954
410 293
410 521
410 452
227 248
227 881
227 361
113 931
113 1723
113 1996
113 1179
113 1936
113 1854
113 1456
288 1307
207 1756
207 889
207 1697
207 75
321 809
321 826
321 1645
321 845
1049 1981
16 101
16 108
1217 1583
1217 1319
1217 1696
1217 80
1217 943
931 1953
931 1372
931 589
931 1491
931 1021
923 492
923 67
923 409
923 1218
923 1713
923 319
923 1459
923 1566
18 303
18 785
18 247
400 595
400 325
400 415
1471 708
1471 273
1471 1292
1471 610
1471 156
463 1987
463 509
1415 150
1123 1535
1123 1658
1123 671
1123 1323
1123 1960
1123 1185
1721 2
1721 448
1721 1999
1721 99
1721 1267
1721 809
1721 1804
1721 1258
1721 126
1721 362
1721 1507
1721 934
1823 1882
1823 819
271 529
271 1558
271 333
1905 1117
1905 1408
1905 386
871 1558
871 1967
1078 741
1078 430
1078 1736
420 1668
420 342
420 993
420 1274
420 1101
420 1604
420 1216
617 1937
617 30
617 1892
617 329
756 1457
756 1924
756 1260
529 1191
529 981
529 1960
1540 536
1540 818
1540 940
248 988
248 1565
248 1454
968 1264
444 21
444 614
477 1277
477 295
477 326
512 298
512 128
512 1274
251 935
251 1804
251 1978
251 798
251 185
251 1935
251 1830
710 282
710 1866
710 1754
710 1507
710 1038
1674 1270
1674 1568
1674 1390
1674 1298
1674 776
214 294
214 786
1622 1673
1622 917
1987 1575
1987 559
1987 1421
1987 896
1987 1184
1987 572
1987 1621
1987 719
1987 1845
827 741
827 1552
1668 258
1668 793
1668 788
1668 999
1668 1034
1668 436
883 765
883 1629
883 823
883 1316
883 1480
883 1968
883 243
883 682
1953 1568
471 891
471 1329
1270 505
148 1384
1488 1186
1488 1308
1488 32
1488 1401
1488 1298
1488 1015
1488 1670
1488 133
492 615
492 121
492 132
492 1347
492 1867
294 1290
294 1463
294 483
294 897
966 210
966 799
966 184
966 50
282 762
282 110
282 1560
282 1262
282 1224
282 659
769 1004
769 1792
769 1493
769 1128
769 1428
769 1297
769 1230
769 1426
769 1880
440 171
440 1596
440 1775
440 744
440 867
440 1972
721 1120
721 72
210 1818
210 276
210 1655
210 667
1808 1063
1808 405
1808 663
814 1476
814 188
814 1754
814 712
814 1532
814 513
28 283
28 1947
986 1874
67 1928
150 1060
150 1026
150 1235
51 1694
1369 918
1369 565
324 732
324 884
324 547
324 1326
324 418
324 120
324 1815
85 502
85 1941
85 1711
1568 78
1568 557
1568 187
1568 451
935 644
2 1781
1556 1971
1749 566
1749 238
1749 987
1186 564
1186 971
1186 1938
1562 231
1562 398
1562 336
1562 813
1562 80
196 1911
196 306
196 806
118 1799
96 1737
96 1409
96 98
96 1644
222 0
222 1143
222 1938
1412 762
1412 87
1440 1990
1440 253
1476 1499
456 1229
456 1780
456 1109
1901 110
1901 1896
1806 884
1364 99
1364 1899
1364 660
378 1279
378 1334
378 581
1221 1069
1221 522
1221 1664
1221 863
448 1937
1610 367
1610 672
1653 1818
1653 185
1653 1565
1653 1973
1653 795
1653 1226
1653 81
1653 343
1882 671
1882 574
1882 682
437 61
437 1904
1575 103
1575 1504
1575 1599
1575 319
1575 1920
1575 29
566 23
566 202
566 245
566 59
566 479
1831 1241
1831 921
1762 426
760 838
23 1015
1689 1875
1689 541
1269 407
1269 1005
1269 810
1269 1678
502 178
204 1512
204 373
204 441
204 82
204 715
498 1017
498 972
498 581
498 838
762 839
632 394
632 415
632 1427
632 1961
632 397
632 1642
632 1048
632 687
1234 1233
1234 614
1234 598
1234 1355
1234 1618
1234 320
613 821
1004 1826
1004 205
1004 618
1004 1005
954 1337
954 1908
954 515
954 1282
954 313
954 1968
954 37
954 1915
1147 586
1147 635
1147 553
990 1468
990 979
990 1182
1377 415
1377 1253
61 56
61 691
61 1692
1999 193
1999 1597
1999 806
1999 525
231 399
231 1817
171 193
171 546
171 258
171 1798
171 837
1399 10
1399 826
1399 391
1399 1698
1399 1202
1594 732
1594 1379
1594 81
643 1013
643 1145
1089 967
1089 1836
1089 1526
1072 1229
1072 893
1072 886
1072 999
1799 1050
1799 1047
1799 110
1799 116
745 398
745 1685
602 1977
741 807
741 936
741 678
1941 1804
1941 1815
426 1527
426 1765
426 1523
426 106
1017 1333
1017 660
1017 369
1050 1913
1050 462
1050 5
1050 949
1050 1684
1050 318
988 1469
988 1093
988 1184
988 1492
988 1707
988 1613
980 83
586 1789
1919 534
1919 785
1919 358
1919 1218
1919 1467
1919 379
457 840
457 369
1131 1596
1131 177
1131 1467
1131 1518
1131 869
676 155
676 1614
551 1756
551 128
1052 1838
1052 33
1052 1001
1052 926
1052 803
1052 614
1052 1250
1052 302
1052 1345
1052 35
1052 1134
1052 208
1075 1924
1075 761
24 298
24 176
24 1419
24 1073
24 1821
1084 1499
1084 1227
1084 1769
1084 758
1084 606
1527 828
1527 1481
559 201
559 588
559 428
1469 704
875 1242
875 799
875 995
1279 68
1279 1569
983 1708
983 1492
983 9
983 1711
42 194
1680 1137
1680 1937
1680 907
1680 1644
1680 1992
992 1512
992 1892
1097 1121
1097 316
1097 29
1097 758
1097 1972
1097 147
1107 936
1107 1994
1107 921
1107 199
1596 843
1596 689
1596 1396
1363 1548
1363 1372
1435 755
1435 1119
1435 1646
1242 1765
1514 1875
1514 505
409 1607
409 1785
409 1814
409 1483
409 106
1059 1117
1059 650
1059 693
1059 1339
1059 242
1059 434
1059 1928
188 1735
188 1742
188 279
1410 1726
1410 116
1410 416
1410 1030
1421 683
68 1685
68 212
1829 1759
628 755
1457 1986
1457 1737
1535 1479
1535 1907
239 650
239 1669
239 293
239 1797
239 982
239 1660
239 1055
202 323
202 870
202 1474
202 455
202 733
202 1495
1026 144
1191 238
1191 1807
342 1103
342 1706
1137 1468
1137 98
1658 1317
1658 1101
1658 569
1658 1716
1658 352
944 1743
944 1426
1846 441
1846 235
1846 629
1846 1515
1846 818
1846 162
1846 767
1235 1539
1235 374
1235 1208
1235 361
1235 1282
1235 1448
1875 1184
1875 1874
1875 1076
1875 179
1875 182
1875 1145
99 1510
399 993
399 912
399 203
732 1787
732 1537
732 557
732 1464
732 656
732 1809
732 1550
671 1601
799 1600
799 1290
394 155
394 194
1569 104
1569 1442
1725 1206
1725 1682
1725 1445
1117 1760
1117 43
1117 425
1117 1264
1117 565
918 1588
918 1609
1173 1934
1173 999
1173 1155
1173 1623
884 685
884 817
1673 1391
1673 334
193 1869
193 1413
193 947
193 289
193 91
1512 889
1512 1837
1512 1871
1512 584
1512 1185
1512 1445
229 515
229 1772
595 1187
595 249
595 1871
595 422
104 608
104 803
104 1814
104 1532
298 1764
298 1909
144 924
1162 568
1162 656
1162 205
1317 1063
1317 914
1317 840
1317 1113
1659 1601
1659 1946
1659 593
1659 845
373 962
373 197
373 1927
373 1510
754 393
995 1884
995 1790
995 1967
995 1295
1338 1757
1764 76
1764 1683
1764 805
1548 1694
1548 1617
1548 499
1479 1984
1479 1773
1479 1977
1479 707
1735 1398
1735 1960
697 432
697 962
697 1687
697 1355
697 139
887 1870
887 1697
887 1380
1066 47
1066 391
1066 280
1066 707
1066 1254
1066 716
1066 1951
103 786
103 1741
103 1382
103 478
1373 1278
1373 1447
765 1067
765 1163
1937 126
1937 1943
1937 1520
195 1781
195 1112
195 1771
195 1893
195 1626
176 1916
176 60
176 1785
176 517
1593 1590
1593 1427
568 696
1302 755
1302 1175
1337 184
1337 1563
534 910
101 447
1723 200
1723 1672
1723 672
1600 702
1600 735
1600 510
1818 1358
1818 873
1818 58
177 1111
177 1696
177 1351
177 606
650 1661
650 1128
650 14
650 1705
650 1881
650 635
209 812
209 1910
209 1934
246 864
1267 1648
1267 943
1244 418
773 661
773 1534
773 1627
773 1541
615 1694
722 1048
722 737
1333 597
1333 844
1333 451
1333 1541
1909 1597
1909 1206
1909 1393
1909 1143
1909 795
1093 334
1093 852
1093 656
1093 461
1093 1888
1756 1528
1756 1729
1102 232
1102 14
1102 295
1102 1824
1702 414
303 680
303 1864
303 845
685 844
1792 182
1792 1158
1792 1817
1811 1703
1811 1299
1811 567
1811 90
1811 1672
1811 1770
1557 1773
276 1319
830 575
830 567
830 97
1963 570
1963 60
1963 1029
1963 1148
967 445
967 1990
967 842
967 947
967 1985
967 639
967 1462
967 1656
967 1932
585 1256
585 1542
585 287
585 1690
620 1437
620 1179
1504 798
1504 265
1504 191
1504 1020
283 1367
10 662
183 1256
183 132
183 1969
183 587
183 1507
183 984
183 350
1787 84
1636 1381
1636 129
1636 242
1636 1032
546 1618
1722 1775
1722 1708
1722 1486
1629 250
1629 1249
1629 1453
1629 307
1781 461
1781 631
1442 1577
1442 1855
1442 1576
809 1714
1597 715
965 1599
965 793
965 1486
1826 1459
1826 804
1826 1903
1950 168
786 116
1838 1316
1838 56
533 690
533 1385
533 1819
1539 870
1539 1955
1539 584
1539 1188
1290 218
1290 1810
1290 610
1290 1975
1290 984
896 702
896 1763
1184 1121
1184 701
1184 862
1184 776
1184 631
1054 494
1836 249
1836 1230
1836 945
1836 541
1804 473
1804 909
1804 1407
47 1955
1599 1537
1599 1397
84 1986
84 1640
1588 295
184 1738
184 1724
184 1046
1899 274
1899 408
1606 413
1986 963
33 1508
33 87
145 1120
145 940
145 1109
325 377
325 1825
325 1952
128 1978
128 1506
128 1765
128 735
128 572
128 1810
128 844
128 865
1493 532
1493 767
1493 1236
1256 835
432 962
432 1887
432 668
432 1239
785 1233
785 1152
785 1711
314 1837
314 173
314 139
1868 909
1258 1390
1258 32
1258 483
1258 1790
1258 1041
889 1542
889 1861
889 1094
889 1778
889 272
889 1148
889 510
415 63
415 447
661 93
661 729
1001 1195
1001 1321
870 738
870 1546
870 1769
1285 140
1285 66
1285 1736
158 1837
358 1351
807 768
807 64
807 521
411 1615
1870 1208
1870 1464
1870 490
1870 322
812 728
812 1737
812 1570
812 170
812 1228
1661 1714
1661 683
1067 468
1067 1839
200 1305
200 1783
268 1537
268 218
268 1125
268 1913
268 1546
268 998
268 1226
268 1841
121 132
121 1923
391 522
708 733
708 83
708 524
708 1247
519 654
616 1705
1451 1598
1451 356
383 1350
383 663
383 1700
398 1681
398 1227
398 677
993 1887
1502 1570
1502 555
1860 823
1860 1031
1860 912
1860 389
1860 859
445 928
518 543
518 95
1111 250
1111 117
1537 1904
1537 575
1537 313
1318 1998
1318 1696
1318 1322
1318 1615
1233 1780
1233 1546
1233 1501
693 570
693 0
693 1944
693 72
693 784
693 465
1053 831
328 557
328 442
328 48
441 486
441 173
441 1044
469 1598
469 273
469 539
891 1760
891 926
374 1074
374 919
374 307
175 1008
175 1543
175 278
82 387
82 1164
946 1852
946 703
1858 1492
1858 1742
1151 1931
1151 1028
1151 525
1820 1978
1820 109
1820 1616
1820 155
1820 1002
1820 1554
702 914
702 723
702 91
702 482
487 1012
487 1913
487 1720
487 1608
487 223
1552 403
1552 1273
1552 402
387 973
962 466
823 31
823 1495
823 739
823 198
1334 274
1334 1543
290 527
290 1452
290 147
1866 589
1340 389
1506 1772
1984 134
1984 430
1984 413
1984 1706
1984 1304
1984 1155
1984 727
782 153
1330 507
311 1931
311 1220
1012 1900
1012 712
297 1161
1288 581
1288 1621
1288 1695
1288 6
136 1973
136 903
136 958
468 1995
1238 247
1238 521
1238 300
1238 813
972 561
1358 241
1358 1286
1358 1178
125 1893
125 969
1971 1570
1971 1791
1971 1276
1971 1327
291 1112
291 1245
1598 135
1598 1752
766 64
235 130
570 429
336 1807
336 1678
258 1651
258 520
258 25
258 11
1694 1268
779 1650
779 1041
1133 1703
1133 873
1133 819
1133 1037
132 236
1525 370
1525 1098
1525 717
1525 696
1525 1384
1525 1993
1671 1669
1671 1009
1671 241
1671 654
1590 292
1590 1614
1468 736
94 882
292 1346
476 1205
675 245
1538 564
1538 50
1538 1495
1406 1316
1406 744
1406 781
76 1396
76 1436
76 1224
1874 1784
1874 901
1130 1755
1130 1981
1130 1152
1130 1210
1130 982
1130 1544
1391 1313
1763 102
1763 1015
1763 1730
1438 1081
1438 1006
1581 771
1390 915
1390 1297
1390 11
973 1149
370 1282
564 1073
564 1687
564 856
564 776
1419 1409
1419 442
1419 435
1419 165
1154 1925
536 1965
536 1005
866 780
866 213
866 768
866 1140
866 1016
866 180
1336 262
491 224
1128 649
1128 269
1128 1571
1474 1319
1474 499
1474 654
1570 1466
1900 1524
1900 278
189 597
189 458
189 911
377 550
377 1161
377 787
377 593
377 1224
377 1329
1908 843
1908 137
1908 1144
1908 1707
1908 436
783 1650
783 1881
1428 979
1428 862
1008 542
1008 1254
715 1452
715 895
715 726
715 20
715 592
715 497
715 1623
715 1768
1601 31
1601 811
1743 903
1743 1961
403 691
403 191
1409 135
1409 987
755 903
755 1304
755 562
755 106
1681 1776
1681 1108
1681 1035
662 1236
511 1832
511 108
511 1994
936 726
936 256
1760 1626
1319 256
1319 850
1319 714
1319 651
748 1189
748 1682
748 1585
748 1992
421 916
421 1039
1381 1074
1381 362
486 1129
1825 1350
1825 108
1776 1218
1776 1791
1776 833
1776 1129
1776 1789
1776 825
1187 333
1187 1113
1651 1572
1651 1034
1651 679
1729 1925
547 1612
547 817
1898 1693
1898 363
747 1920
747 1354
747 90
747 6
747 639
747 1153
1996 860
528 621
800 1353
800 594
265 1134
1350 669
213 1994
213 805
213 1770
273 1814
273 170
273 458
273 517
1542 552
1414 1103
1414 1354
1414 1295
1316 137
1316 1976
1316 705
1316 819
1669 1922
1693 1544
843 58
843 1863
843 1695
843 648
1218 964
1218 924
1218 1416
1741 1071
1741 199
824 1852
1241 455
1241 1197
1241 1827
357 939
357 1615
293 1291
293 1181
293 151
1076 433
1076 482
1076 168
951 129
49 982
49 1603
49 731
49 1619
1755 655
1755 606
1755 1796
1326 894
236 912
236 494
1047 572
1229 1467
1229 623
1229 740
1229 1006
914 187
914 340
914 206
914 272
507 1397
507 1526
32 280
1683 1698
1683 376
257 1979
257 787
58 278
58 909
56 1942
1911 583
1911 1035
1031 1944
1031 488
1031 407
1031 894
1098 1717
455 1074
455 817
174 1179
770 287
770 1501
770 1360
164 1771
50 976
50 120
915 1119
915 1646
1947 63
1947 300
1965 1880
218 1877
831 916
831 381
1662 939
926 1733
926 1739
926 839
1315 1436
912 1079
1437 1404
1437 717
1607 1449
14 122
14 1827
1852 945
1852 1110
1852 658
1852 6
1852 1564
1553 867
1553 981
1861 439
1861 994
1750 29
1750 1746
1733 768
1733 556
803 1175
660 1168
689 1893
689 603
224 1401
224 1160
224 679
1765 1936
361 1181
361 1425
129 1079
129 575
129 1687
1273 226
1273 1216
264 680
264 1216
264 1815
900 1824
900 1447
900 3
1401 1393
1401 1386
1401 44
122 41
122 1361
1103 313
735 597
735 372
735 186
75 1144
1612 1645
439 1774
1773 1934
1773 1780
1773 1202
1430 1617
793 937
793 141
98 1988
527 1734
527 1139
1990 1314
274 443
185 389
185 364
1206 1571
820 163
820 890
852 1354
852 53
852 739
1404 1642
1851 592
1851 1387
1851 143
60 1104
155 897
155 90
155 1678
1079 738
1079 496
1708 623
1708 79
572 1840
572 720
178 1869
178 1621
178 1109
178 877
92 1713
92 1161
1667 1386
1667 1620
645 1247
1946 1397
1946 306
1946 53
1946 62
1946 198
629 681
629 1951
63 1475
768 1231
768 1655
768 868
1120 1392
1120 1259
1832 247
1832 963
1832 124
1832 1096
473 1827
656 642
644 1690
137 577
550 1022
550 379
550 397
550 1639
389 269
389 731
126 808
126 212
744 281
726 368
299 1935
1508 1362
1508 667
1508 1962
1508 1857
1884 1812
1515 1924
295 1745
295 371
583 1284
1114 872
1112 1455
1112 1447
430 822
1688 1189
788 262
1095 433
1095 461
1179 504
1179 308
614 154
818 1863
1141 821
1141 65
1887 360
1887 1692
1887 1426
1791 623
1791 1215
1855 493
1855 1384
1869 43
717 286
93 567
319 496
1714 1560
1714 1351
1714 911
1714 894
1714 484
1268 424
393 1324
393 340
393 180
1976 1375
1976 857
1844 1572
1844 1520
1910 226
1250 1873
1250 423
1250 1232
1291 308
1291 160
1840 1854
1840 139
1840 1896
1432 1230
1432 712
1774 225
997 1698
997 217
997 1030
1617 976
1617 837
1253 919
1500 1547
1161 1400
1161 552
1161 1928
575 808
20 1754
577 1717
1499 1427
1499 71
1300 1091
1300 1028
1189 1672
1292 1305
696 315
696 530
696 517
1486 413
1486 269
1582 1995
286 910
286 141
286 146
286 333
286 665
72 435
1977 197
1753 927
1572 1481
1264 1062
1520 1023
1344 649
1459 146
187 307
87 1360
1934 216
1934 417
1955 1501
1955 306
1029 52
1029 504
1029 226
1029 584
598 1812
598 1917
598 41
939 1296
939 621
939 112
867 1385
867 1407
429 1136
429 1219
429 386
1871 1891
250 934
1809 1023
1771 621
1771 124
241 605
1434 1153
1754 479
979 52
1125 1121
1125 839
1408 723
1408 1927
1408 168
849 143
849 684
520 604
1455 1081
1455 1462
1807 532
1230 1249
1230 53
1101 648
1307 367
1307 1134
1696 354
1696 1830
1696 1020
1380 363
1380 1303
1380 687
1444 1262
1444 1768
31 771
31 1580
31 1991
31 169
1797 742
1797 813
1797 1891
315 1975
315 574
315 1985
360 1163
1705 369
52 723
52 1226
52 1505
1969 1778
424 348
424 488
424 1129
424 381
821 740
723 1132
723 351
256 1550
256 1228
1734 750
1734 217
1121 422
1121 1746
860 618
1164 764
1164 1000
191 771
191 930
494 1810
494 736
864 5
864 1227
864 1441
130 1769
1938 1158
1938 1228
1913 1922
1447 1021
447 351
1213 1048
434 842
434 1768
247 127
247 466
247 123
1177 401
316 1789
882 1532
348 190
1286 742
433 532
433 423
597 1931
850 1585
850 746
1692 772
1814 368
107 1604
107 569
362 516
1343 1144
1343 364
623 1988
623 1964
1644 217
771 1284
190 1306
190 648
1973 198
897 750
897 165
833 1215
1324 504
1144 1968
1707 1491
1707 692
1707 639
707 1819
903 1564
1952 1724
886 163
1863 1021
1863 1020
561 767
649 1263
649 272
649 642
1382 539
1108 339
1650 1441
110 1062
1621 1276
1621 1795
1833 829
1426 1158
1426 963
701 493
701 1044
714 407
592 1418
278 332
1546 576
1501 1209
1385 300
1385 1118
1739 1231
1739 1199
1739 1028
5 574
1974 1247
504 80
504 1962
1158 1249
1158 984
1158 1085
1158 343
1359 1042
1359 62
1604 1210
1613 524
1116 1335
302 950
302 865
1790 1670
646 872
646 506
1491 350
1491 1055
435 1856
435 450
736 1303
736 133
379 855
742 510
461 1306
567 37
1197 1039
1454 865
313 1006
1182 1303
83 933
83 1375
963 828
1360 245
924 25
719 808
719 499
407 38
407 95
407 901
1433 1453
565 781
1226 1993
949 48
949 376
539 1684
1296 1891
1505 627
704 761
1968 1046
1752 1699
1752 62
957 683
306 458
306 253
729 655
729 917
1507 1132
1975 1091
197 1655
197 1192
1071 225
933 1664
1132 552
828 3
402 1691
402 1033
25 1970
458 720
840 281
1560 253
669 1632
354 1083
1032 352
1032 1856
1453 1640
1453 796
1935 261
950 927
950 1830
1449 869
958 423
245 1609
245 1346
1566 326
1798 734
1798 1445
984 1843
872 1045
573 1608
541 79
1684 679
1927 1425
555 1933
226 1251
372 464
372 764
1129 147
1716 95
1716 243
1716 514
364 1660
1034 811
1034 1864
1034 376
262 223
262 1917
1209 594
1608 1964
1481 1220
127 356
1664 1306
1664 259
1664 484
667 1088
1847 919
1847 1958
919 1088
162 368
1992 1192
1228 1148
876 91
876 917
1645 478
1645 890
681 1483
1021 1690
138 443
621 460
621 1329
772 641
300 1745
1216 1199
1216 74
1991 734
1375 1951
493 1168
71 1795
115 1462
37 1640
552 1885
552 416
720 523
269 641
1903 994
253 1044
679 1922
1724 329
79 1259
1085 322
1104 1013
1104 481
1789 186
1136 1418
1483 105
1922 911
1642 665
1841 1857
141 279
65 525
65 890
22 1888
737 59
737 428
1398 1000
1398 1784
97 417
1854 1888
1854 4
243 969
1962 1915
1335 1178
865 727
1993 1845
1907 153
1928 105
1711 44
160 1709
1730 810
1494 505
987 1232
143 381
1856 1917
810 1646
443 1251
1134 1199
1460 1510
1248 1783
1646 356
1329 1456
868 481
868 594
1215 1149
682 1225
146 1175
371 1139
863 124
1632 261
1045 1033
1118 1448
1496 1563
1970 1518
1830 1564
1960 684
381 320
310 1795
1041 478
877 261
1153 513
796 1932
484 1626
890 1948
