84 196
84 24
84 238
84 320
84 224
84 155
84 349
84 293
84 302
84 272
196 238
196 224
196 349
196 320
196 302
196 155
196 80
196 293
238 224
238 349
238 24
238 80
238 320
238 321
238 155
238 128
238 261
224 349
224 302
224 80
224 321
224 24
224 334
224 320
349 80
349 321
349 334
349 356
349 24
349 114
302 80
302 321
302 334
302 356
302 331
302 8
80 321
80 334
80 356
80 331
80 160
321 356
321 331
321 160
321 68
321 59
334 356
334 331
334 160
334 266
334 31
356 331
356 160
356 31
356 70
356 168
356 255
331 160
331 266
331 31
331 70
331 121
160 31
160 70
160 121
160 333
160 251
266 31
266 70
266 121
266 333
266 66
266 245
266 359
31 70
31 333
31 66
31 109
31 37
70 121
70 333
70 66
70 109
70 228
121 333
121 66
121 109
121 228
121 277
121 115
333 66
333 109
333 228
333 277
333 78
66 228
66 277
66 12
66 110
66 348
109 228
109 277
109 12
109 368
109 258
109 44
228 12
228 110
228 368
228 112
228 343
277 12
277 110
277 368
277 112
277 306
277 361
12 110
12 368
12 112
12 306
12 384
110 368
110 112
110 306
110 384
110 93
110 55
368 112
368 306
368 384
368 93
368 303
112 306
112 384
112 93
112 303
112 330
306 384
306 93
306 303
306 330
306 284
384 93
384 303
384 284
384 369
384 237
384 298
384 40
93 303
93 330
93 284
93 369
93 98
93 236
303 330
303 284
303 369
303 98
303 117
303 46
330 284
330 369
330 98
330 117
330 30
330 86
330 81
284 369
284 117
284 30
284 128
284 218
369 98
369 117
369 30
369 128
369 154
369 280
98 117
98 30
98 128
98 154
98 326
117 30
117 128
117 326
117 233
117 86
117 310
30 128
30 154
30 326
30 233
30 83
128 154
128 326
128 233
128 382
128 62
128 268
128 172
154 326
154 233
154 382
154 62
154 83
326 233
326 382
326 62
326 83
326 354
233 382
233 62
233 83
233 354
233 39
382 62
382 83
382 354
382 39
382 8
62 83
62 39
62 171
62 99
62 16
83 354
83 39
83 8
83 171
83 48
354 39
354 8
354 171
354 389
354 287
39 8
39 171
39 49
39 279
39 162
8 171
8 48
8 49
8 9
8 28
171 48
171 49
171 279
171 9
171 218
171 4
48 49
48 279
48 9
48 218
48 379
49 279
49 9
49 218
49 99
49 72
49 358
279 9
279 218
279 379
279 225
279 26
9 218
9 379
9 99
9 225
9 258
9 108
9 22
218 379
218 99
218 258
218 339
218 81
218 189
379 99
379 258
379 339
379 201
379 387
99 225
99 258
99 339
99 201
99 28
225 258
225 339
225 201
225 28
225 338
225 264
258 339
258 201
258 28
258 338
258 186
339 201
339 28
339 338
339 186
339 176
339 389
201 28
201 338
201 186
201 176
201 231
28 186
28 176
28 231
28 329
338 186
338 176
338 231
338 44
338 120
186 176
186 231
186 329
186 44
186 57
186 86
176 231
176 329
176 44
176 57
176 157
231 329
231 44
231 57
231 157
231 390
231 107
329 44
329 57
329 390
329 250
329 69
44 57
44 157
44 390
44 250
57 157
57 390
57 250
57 263
57 205
157 390
157 250
157 263
157 205
157 140
390 250
390 263
390 205
390 140
390 105
250 263
250 205
250 140
250 105
250 328
250 61
263 205
263 140
263 105
263 328
263 216
205 140
205 105
205 328
205 216
205 353
140 105
140 328
140 216
140 353
140 211
105 328
105 216
105 211
105 41
105 73
328 216
328 353
328 211
328 41
328 182
216 353
216 211
216 41
216 182
216 137
216 260
353 211
353 182
353 137
353 135
353 375
211 41
211 182
211 137
211 135
211 327
41 182
41 135
41 327
41 97
41 264
182 137
182 135
182 327
182 97
182 161
137 135
137 327
137 97
137 161
137 179
135 327
135 97
135 161
135 179
135 347
327 97
327 161
327 179
327 347
327 214
97 161
97 179
97 347
97 300
97 370
161 347
161 300
161 370
161 40
161 194
179 347
179 300
179 370
179 40
179 335
179 58
347 300
347 370
347 40
347 335
347 288
300 370
300 40
300 335
300 288
300 34
370 40
370 335
370 288
370 34
370 283
40 335
40 288
40 283
40 195
40 143
335 34
335 283
335 195
335 374
335 399
288 34
288 283
288 374
288 276
288 55
34 283
34 195
34 374
34 276
34 143
283 195
283 374
283 276
283 143
283 269
195 374
195 276
195 143
195 269
195 342
374 276
374 143
374 269
374 199
374 255
276 143
276 269
276 342
276 199
276 208
143 269
143 342
143 199
143 208
269 342
269 199
269 208
269 79
269 244
342 199
342 79
342 244
342 381
342 262
199 208
199 79
199 244
199 381
199 305
199 259
208 79
208 244
208 381
208 305
208 389
79 244
79 381
79 305
79 389
79 395
244 381
244 305
244 389
244 395
244 371
381 305
381 389
381 395
381 371
381 257
381 240
381 387
305 389
305 371
305 257
305 107
305 150
389 395
389 371
389 257
389 72
395 371
395 257
395 107
395 72
395 127
371 257
371 107
371 72
371 127
371 25
257 107
257 72
257 127
257 25
257 193
107 127
107 25
107 193
107 290
72 127
72 25
72 193
72 290
72 312
127 25
127 193
127 290
127 151
127 385
25 193
25 290
25 312
25 151
25 366
193 290
193 312
193 151
193 366
193 388
193 67
290 312
290 151
290 366
290 346
290 242
312 151
312 366
312 346
312 242
312 317
151 366
151 346
151 242
151 317
151 74
151 82
366 346
366 242
366 317
366 74
366 113
366 255
346 242
346 317
346 74
346 113
346 294
242 317
242 74
242 113
242 294
242 357
317 74
317 113
317 294
317 357
317 142
74 113
74 294
74 357
74 136
74 147
113 294
113 357
113 142
113 136
113 148
113 360
294 357
294 142
294 136
294 148
294 399
357 142
357 136
357 148
357 399
357 162
142 136
142 148
142 399
142 162
142 33
136 148
136 399
136 162
136 33
136 322
148 399
148 162
148 33
148 68
148 150
148 17
399 162
399 33
399 68
399 150
399 2
162 33
162 68
162 150
162 2
162 270
33 68
33 150
33 2
33 270
33 262
68 150
68 2
68 270
68 90
68 256
150 2
150 270
150 262
150 367
150 100
2 270
2 262
2 367
2 100
2 237
270 262
270 367
270 100
270 237
270 139
262 367
262 100
262 237
262 139
262 301
367 100
367 237
367 139
367 301
367 120
100 237
100 139
100 301
100 120
100 5
237 301
237 120
237 5
237 189
139 301
139 120
139 5
139 189
139 361
301 120
301 5
301 189
301 361
301 69
301 256
120 5
120 189
120 361
120 69
120 373
5 189
5 361
5 69
5 373
5 280
189 361
189 69
189 280
189 165
361 373
361 280
361 348
361 394
361 214
69 373
69 280
69 348
69 147
69 207
373 280
373 165
373 348
373 147
373 181
280 348
280 147
280 10
280 118
165 348
165 147
165 181
165 130
165 365
348 147
348 181
348 130
348 365
348 387
147 181
147 130
147 365
147 387
147 396
181 130
181 365
181 387
181 396
181 47
130 365
130 396
130 239
130 55
130 318
365 396
365 47
365 239
365 383
365 359
387 396
387 47
387 239
387 397
396 47
396 239
396 383
396 397
396 388
47 239
47 383
47 397
47 388
47 253
47 155
239 383
239 397
239 388
239 253
239 64
383 397
383 388
383 253
383 64
383 268
397 388
397 253
397 64
397 268
397 38
388 64
388 268
388 38
388 206
253 64
253 268
253 38
253 206
253 183
64 268
64 38
64 206
64 183
64 18
268 38
268 206
268 18
268 230
38 206
38 183
38 18
38 230
38 90
206 183
206 18
206 230
206 90
206 59
183 18
183 230
183 360
183 138
183 217
183 65
18 230
18 90
18 59
18 188
18 324
230 90
230 59
230 360
230 188
230 198
230 141
90 59
90 360
90 91
90 380
90 271
59 360
59 188
59 91
59 380
59 256
360 91
360 380
360 256
360 236
188 91
188 380
188 256
188 236
188 86
91 380
91 256
91 236
91 86
91 138
380 256
380 236
380 86
380 138
380 77
256 236
256 86
256 102
256 78
236 86
236 77
236 102
236 375
86 102
86 375
86 386
138 77
138 375
138 386
138 184
138 101
77 102
77 375
77 386
77 184
77 286
102 375
102 386
102 184
102 286
102 311
102 190
375 386
375 184
375 311
375 336
375 241
386 184
386 286
386 311
386 336
386 29
184 286
184 311
184 336
184 29
184 309
184 323
286 311
286 336
286 29
286 309
286 192
311 336
311 29
311 309
311 192
311 341
336 29
336 309
336 192
336 341
336 292
336 197
29 309
29 192
29 341
29 292
29 232
29 53
309 192
309 341
309 232
309 299
309 359
192 341
192 292
192 232
192 299
192 85
341 292
341 232
341 299
341 85
341 101
341 282
292 232
292 299
292 85
292 101
292 11
232 299
232 85
232 101
232 11
232 65
299 85
299 101
299 11
299 65
299 164
85 101
85 11
85 65
85 164
85 23
101 11
101 164
101 23
101 310
11 65
11 164
11 23
11 310
11 71
65 164
65 23
65 310
65 71
65 222
164 23
164 310
164 71
164 222
164 260
23 310
23 71
23 222
23 260
23 115
23 219
310 71
310 222
310 260
310 115
71 260
71 115
71 227
71 172
71 221
222 260
222 115
222 227
222 172
222 149
260 115
260 227
260 172
260 149
115 172
115 149
115 314
115 287
227 172
227 149
227 314
227 287
227 377
227 60
172 149
172 314
172 287
172 377
149 314
149 287
149 377
149 363
149 214
314 287
314 377
314 363
314 214
314 6
287 377
287 363
287 214
287 6
287 21
377 363
377 214
377 6
377 21
377 106
363 6
363 21
363 106
363 210
363 156
214 6
214 106
214 210
214 4
6 21
6 106
6 4
6 278
6 259
21 106
21 210
21 4
21 278
21 252
21 42
106 210
106 4
106 278
106 252
106 319
210 4
210 278
210 252
210 319
210 281
4 252
4 319
4 281
4 111
278 252
278 319
278 281
278 111
278 131
252 319
252 281
252 111
252 131
252 114
319 281
319 111
319 131
319 114
319 337
281 111
281 131
281 337
281 123
281 185
111 131
111 114
111 337
111 123
111 362
131 114
131 123
131 362
131 316
131 200
114 337
114 123
114 362
114 316
114 219
114 20
337 123
337 362
337 316
337 219
337 235
123 362
123 316
123 219
123 235
123 180
362 316
362 219
362 235
362 180
362 251
316 219
316 235
316 180
316 251
316 203
219 235
219 180
219 251
219 203
235 180
235 251
235 203
235 78
235 3
180 251
180 203
180 78
180 3
180 145
180 56
251 203
251 78
251 3
251 145
251 19
203 78
203 3
203 145
203 391
203 394
78 3
78 145
78 125
78 391
78 163
78 204
3 145
3 125
3 391
3 163
3 187
3 63
145 125
145 391
145 187
145 118
145 275
125 391
125 163
125 187
125 118
125 202
391 163
391 187
391 118
391 202
391 254
163 187
163 202
163 254
163 178
163 220
187 118
187 202
187 254
187 178
187 307
118 202
118 254
118 178
118 307
118 296
202 254
202 178
202 307
202 296
202 168
254 307
254 296
254 168
254 156
254 1
178 307
178 296
178 168
178 156
178 169
307 296
307 168
307 156
307 124
307 94
296 168
296 156
296 169
296 124
296 229
168 156
168 169
168 124
168 229
168 217
156 169
156 124
156 229
156 217
156 285
169 124
169 229
169 96
169 159
169 304
124 229
124 217
124 285
124 96
124 323
124 221
229 217
229 285
229 96
229 323
229 17
217 285
217 96
217 323
217 17
217 87
285 96
285 323
285 17
285 87
285 241
96 323
96 17
96 87
96 241
96 153
323 87
323 241
323 153
323 376
323 10
17 87
17 153
17 376
17 108
87 241
87 153
87 376
87 95
87 332
241 153
241 376
241 95
241 221
241 212
241 198
153 376
153 95
153 332
153 221
153 385
376 95
376 332
376 221
376 385
376 304
95 332
95 221
95 385
95 304
95 43
332 221
332 385
332 304
332 43
332 32
221 385
221 304
221 32
221 129
385 304
385 43
385 32
385 129
385 392
304 43
304 32
304 129
304 392
304 315
43 32
43 129
43 392
43 315
43 15
32 129
32 392
32 315
32 15
32 308
129 392
129 315
129 15
129 308
129 134
129 207
392 315
392 15
392 308
392 134
392 141
315 15
315 308
315 134
315 141
315 73
15 308
15 134
15 141
15 73
15 175
308 141
308 73
308 175
308 291
308 245
134 141
134 73
134 291
134 340
134 13
141 73
141 175
141 340
141 0
141 58
73 175
73 291
73 340
73 0
73 159
175 291
175 340
175 0
175 159
175 249
291 340
291 0
291 159
291 249
291 247
340 0
340 159
340 249
340 247
340 198
0 159
0 249
0 247
0 198
0 398
159 249
159 247
159 198
159 398
159 372
249 247
249 198
249 398
249 209
249 358
247 198
247 398
247 372
247 209
247 67
198 398
198 372
198 282
398 372
398 209
398 67
398 282
398 207
372 209
372 67
372 282
372 207
372 144
209 67
209 282
209 207
209 144
209 45
67 282
67 207
67 144
67 45
67 378
282 207
282 144
282 378
282 248
207 45
207 378
207 248
207 92
207 350
144 45
144 378
144 92
144 352
144 75
45 378
45 248
45 92
45 352
45 243
378 248
378 92
378 352
378 243
378 191
248 92
248 352
248 243
248 191
248 10
92 352
92 243
92 191
92 10
92 56
352 243
352 191
352 10
352 56
352 223
243 191
243 10
243 56
243 37
243 88
191 10
191 56
191 223
191 37
191 63
10 56
10 37
10 63
10 364
56 223
56 37
56 364
56 167
223 37
223 63
223 364
223 167
223 234
37 63
37 364
37 167
37 234
37 212
63 364
63 167
63 212
63 185
364 167
364 234
364 212
364 185
364 133
167 234
167 212
167 185
167 350
167 19
234 212
234 185
234 133
234 350
234 19
212 185
212 133
212 350
212 19
212 55
185 133
185 350
185 19
185 55
185 104
133 350
133 19
133 55
133 104
133 322
350 19
350 55
350 104
350 81
19 55
19 104
19 322
19 81
19 325
55 104
55 322
55 81
55 246
104 322
104 81
104 325
104 132
104 152
322 81
322 325
322 132
322 50
322 35
81 325
81 246
81 50
81 220
325 246
325 132
325 50
325 220
325 226
246 132
246 50
246 220
246 226
246 174
132 50
132 220
132 226
132 174
132 213
50 220
50 226
50 174
50 213
50 158
220 226
220 174
220 213
220 158
220 20
220 61
226 174
226 213
226 158
226 20
226 355
226 103
174 213
174 158
174 20
174 355
174 265
213 158
213 20
213 355
213 265
213 119
158 20
158 355
158 265
158 119
158 215
20 265
20 119
20 215
20 267
355 265
355 119
355 215
355 267
355 298
265 119
265 215
265 267
265 298
265 358
119 215
119 267
119 298
119 358
119 351
215 267
215 298
215 358
215 351
215 318
215 197
267 298
267 358
267 351
267 318
267 166
298 358
298 351
298 318
298 166
298 245
358 351
358 318
358 166
358 245
351 318
351 166
351 245
351 52
351 53
318 166
318 245
318 52
318 53
318 264
166 245
166 52
166 53
166 264
166 259
245 52
245 264
245 259
245 122
52 53
52 264
52 259
52 122
52 177
53 264
53 259
53 122
53 194
264 259
264 122
264 177
264 273
259 177
259 194
259 273
259 36
122 177
122 194
122 273
122 36
122 297
177 194
177 273
177 36
177 297
177 108
194 273
194 36
194 297
194 108
194 170
273 36
273 297
273 108
273 170
273 35
36 297
36 108
36 170
36 35
36 275
297 108
297 170
297 35
297 275
297 343
108 170
108 35
108 275
108 343
170 35
170 275
170 343
170 359
170 393
35 275
35 343
35 359
35 393
35 295
275 343
275 359
275 393
275 295
275 200
343 359
343 393
343 295
343 200
343 82
359 393
359 295
359 82
359 42
359 116
393 295
393 200
393 82
393 42
393 13
295 200
295 82
295 42
295 13
295 46
200 82
200 42
200 13
200 46
200 94
82 13
82 94
82 103
82 27
42 46
42 94
42 103
42 116
13 46
13 94
13 103
13 116
13 274
46 94
46 116
46 274
46 58
94 103
94 116
94 274
94 58
94 126
103 116
103 274
103 126
103 197
103 24
116 274
116 58
116 126
116 75
274 58
274 126
274 197
274 75
274 54
58 126
58 197
58 75
58 324
126 197
126 75
126 54
126 324
126 7
197 75
197 324
197 261
75 54
75 324
75 7
75 261
75 394
54 324
54 7
54 261
54 394
54 60
324 7
324 261
324 394
324 60
324 289
7 261
7 394
7 60
7 289
7 173
261 394
261 60
261 289
261 173
394 60
394 289
394 173
394 271
394 89
60 289
60 173
60 271
60 89
289 173
289 271
289 89
289 152
289 255
173 271
173 89
173 152
173 255
173 1
271 89
271 152
271 255
271 1
271 22
89 152
89 255
89 1
89 22
89 16
152 255
152 1
152 22
152 16
152 344
255 1
255 22
255 27
1 22
1 16
1 344
1 27
1 51
22 16
22 344
22 27
22 51
16 344
16 27
16 51
16 204
16 146
344 27
344 51
344 204
344 146
344 26
27 51
27 204
27 146
27 26
27 88
51 204
51 146
51 26
51 88
51 61
204 146
204 88
204 61
204 240
146 26
146 88
146 61
146 240
146 345
26 88
26 61
26 240
26 345
26 14
88 61
88 240
88 345
88 14
88 313
61 14
61 313
61 76
240 345
240 14
240 76
240 190
345 14
345 313
345 76
345 190
345 272
14 313
14 76
14 190
14 272
14 293
313 76
313 190
313 272
313 293
313 155
76 190
76 272
76 293
76 155
76 320
190 272
190 293
190 155
190 320
272 293
272 155
272 320
272 24
293 155
293 320
293 24
155 24
320 24
